
(set-logic ALL) 

(declare-datatype MyList ((Nil) (Cons (head Real) (tail MyList)) )) 
(declare-fun l0 () MyList) 
(declare-fun l1 () MyList) 
(declare-fun l2 () MyList) 
(declare-fun l3 () MyList) 
(declare-fun i0 () Real) 
(declare-fun i1 () Real) 
(assert (is-Nil l3) )
(assert (is-Cons l1) )
(assert (not (is-Cons Nil)) )
(assert (not (is-Nil Nil)) )
(assert (and (= l0 l3) (= l2 Nil) (= l0 Nil)) )
(assert (and (= l2 Nil) (is-Nil Nil) (= l2 Nil) (= l0 Nil)) )
(assert (not (= l0 l0)) )
(assert (and (= l2 Nil) (is-Cons l2)) )
(check-sat)
